NAME : instances/20-120-tsp/instance-42.tsp
COMMENT : No Comment
TYPE : TSP
DIMENSION: 42
EDGE_WEIGHT_TYPE : EUC_2D
NODE_COORD_SECTION
1 9817 8446 
2 8772 4262 
3 2045 1534 
4 3731 2542 
5 7084 1752 
6 6320 8480 
7 6453 5215 
8 6233 1345 
9 7320 2796 
10 8403 8717 
11 8989 7098 
12 3 152 
13 9753 2347 
14 5303 4688 
15 7861 6459 
16 3323 2072 
17 6382 1401 
18 6499 3809 
19 6297 8744 
20 6546 2320 
21 5245 7895 
22 8817 662 
23 5895 4080 
24 1307 3612 
25 5563 3875 
26 6343 471 
27 8599 4723 
28 4996 6215 
29 4198 6343 
30 8010 7573 
31 4647 7959 
32 1982 2349 
33 9363 2536 
34 4110 8331 
35 6212 743 
36 3648 149 
37 4444 207 
38 4538 6449 
39 2917 2619 
40 5576 3697 
41 774 3633 
42 2975 1472 
EOF
